NAME          DCAP_3_4_2_500_SS218
ROWS
 N  OBJ
 L  CON1
 L  CON2
 L  CON3
 L  CON4
 L  CON5
 L  CON6
 L  CON7
 L  CON8
 L  CON9
 L  CON10
 L  CON11
 L  CON12
 E  CON13
 E  CON14
 E  CON15
 E  CON16
 E  CON17
 E  CON18
 E  CON19
 E  CON20
COLUMNS
    x[1,1]    OBJ       6.180167      CON1      1.000000    
    x[1,1]    CON7      -1.000000     CON8      -1.000000   
    x[1,2]    OBJ       5.039546      CON2      1.000000    
    x[1,2]    CON8      -1.000000   
    x[2,1]    OBJ       6.732585      CON3      1.000000    
    x[2,1]    CON9      -1.000000     CON10     -1.000000   
    x[2,2]    OBJ       7.443064      CON4      1.000000    
    x[2,2]    CON10     -1.000000   
    x[3,1]    OBJ       6.563535      CON5      1.000000    
    x[3,1]    CON11     -1.000000     CON12     -1.000000   
    x[3,2]    OBJ       6.054841      CON6      1.000000    
    x[3,2]    CON12     -1.000000   
    MARKER    'MARKER'                'INTORG'
    u[1,1]    OBJ       48.076654     CON1      -1.000000   
    u[1,2]    OBJ       49.466655     CON2      -1.000000   
    u[2,1]    OBJ       49.996186     CON3      -1.000000   
    u[2,2]    OBJ       32.230043     CON4      -1.000000   
    u[3,1]    OBJ       20.066487     CON5      -1.000000   
    u[3,2]    OBJ       27.484319     CON6      -1.000000   
    y[1,1,1]  OBJ       8.569891      CON7      0.895969    
    y[1,1,1]  CON13     1.000000    
    y[1,1,2]  OBJ       8.795156      CON8      1.137514    
    y[1,1,2]  CON14     1.000000    
    y[1,2,1]  OBJ       7.362898      CON7      0.601986    
    y[1,2,1]  CON15     1.000000    
    y[1,2,2]  OBJ       8.410330      CON8      0.770164    
    y[1,2,2]  CON16     1.000000    
    y[1,3,1]  OBJ       8.111156      CON7      1.150123    
    y[1,3,1]  CON17     1.000000    
    y[1,3,2]  OBJ       6.686373      CON8      1.232417    
    y[1,3,2]  CON18     1.000000    
    y[1,4,1]  OBJ       5.229683      CON7      0.982546    
    y[1,4,1]  CON19     1.000000    
    y[1,4,2]  OBJ       7.784799      CON8      1.125374    
    y[1,4,2]  CON20     1.000000    
    y[2,1,1]  OBJ       9.288083      CON9      0.895969    
    y[2,1,1]  CON13     1.000000    
    y[2,1,2]  OBJ       7.875493      CON10     1.137514    
    y[2,1,2]  CON14     1.000000    
    y[2,2,1]  OBJ       5.009542      CON9      0.601986    
    y[2,2,1]  CON15     1.000000    
    y[2,2,2]  OBJ       9.967963      CON10     0.770164    
    y[2,2,2]  CON16     1.000000    
    y[2,3,1]  OBJ       5.941632      CON9      1.150123    
    y[2,3,1]  CON17     1.000000    
    y[2,3,2]  OBJ       7.313738      CON10     1.232417    
    y[2,3,2]  CON18     1.000000    
    y[2,4,1]  OBJ       6.378709      CON9      0.982546    
    y[2,4,1]  CON19     1.000000    
    y[2,4,2]  OBJ       5.536213      CON10     1.125374    
    y[2,4,2]  CON20     1.000000    
    y[3,1,1]  OBJ       9.974100      CON11     0.895969    
    y[3,1,1]  CON13     1.000000    
    y[3,1,2]  OBJ       8.931079      CON12     1.137514    
    y[3,1,2]  CON14     1.000000    
    y[3,2,1]  OBJ       6.663792      CON11     0.601986    
    y[3,2,1]  CON15     1.000000    
    y[3,2,2]  OBJ       5.669710      CON12     0.770164    
    y[3,2,2]  CON16     1.000000    
    y[3,3,1]  OBJ       7.046409      CON11     1.150123    
    y[3,3,1]  CON17     1.000000    
    y[3,3,2]  OBJ       9.746532      CON12     1.232417    
    y[3,3,2]  CON18     1.000000    
    y[3,4,1]  OBJ       5.599868      CON11     0.982546    
    y[3,4,1]  CON19     1.000000    
    y[3,4,2]  OBJ       6.745968      CON12     1.125374    
    y[3,4,2]  CON20     1.000000    
    z[1,1]    OBJ       653.141891    CON13     1.000000    
    z[1,2]    OBJ       672.186994    CON14     1.000000    
    z[2,1]    OBJ       774.736850    CON15     1.000000    
    z[2,2]    OBJ       819.049769    CON16     1.000000    
    z[3,1]    OBJ       784.987611    CON17     1.000000    
    z[3,2]    OBJ       755.283620    CON18     1.000000    
    z[4,1]    OBJ       709.588482    CON19     1.000000    
    z[4,2]    OBJ       775.016087    CON20     1.000000    
    MARKER    'MARKER'                 'INTEND'
RHS
    RHS       CON1      -0.000000     CON2      -0.000000   
    RHS       CON3      -0.000000     CON4      -0.000000   
    RHS       CON5      -0.000000     CON6      -0.000000   
    RHS       CON7      -0.000000     CON8      -0.000000   
    RHS       CON9      -0.000000     CON10     -0.000000   
    RHS       CON11     -0.000000     CON12     -0.000000   
    RHS       CON13     1.000000      CON14     1.000000    
    RHS       CON15     1.000000      CON16     1.000000    
    RHS       CON17     1.000000      CON18     1.000000    
    RHS       CON19     1.000000      CON20     1.000000    
BOUNDS
 BV BOUND     u[1,1]  
 BV BOUND     u[1,2]  
 BV BOUND     u[2,1]  
 BV BOUND     u[2,2]  
 BV BOUND     u[3,1]  
 BV BOUND     u[3,2]  
 BV BOUND     y[1,1,1]
 BV BOUND     y[1,1,2]
 BV BOUND     y[1,2,1]
 BV BOUND     y[1,2,2]
 BV BOUND     y[1,3,1]
 BV BOUND     y[1,3,2]
 BV BOUND     y[1,4,1]
 BV BOUND     y[1,4,2]
 BV BOUND     y[2,1,1]
 BV BOUND     y[2,1,2]
 BV BOUND     y[2,2,1]
 BV BOUND     y[2,2,2]
 BV BOUND     y[2,3,1]
 BV BOUND     y[2,3,2]
 BV BOUND     y[2,4,1]
 BV BOUND     y[2,4,2]
 BV BOUND     y[3,1,1]
 BV BOUND     y[3,1,2]
 BV BOUND     y[3,2,1]
 BV BOUND     y[3,2,2]
 BV BOUND     y[3,3,1]
 BV BOUND     y[3,3,2]
 BV BOUND     y[3,4,1]
 BV BOUND     y[3,4,2]
 BV BOUND     z[1,1]  
 BV BOUND     z[1,2]  
 BV BOUND     z[2,1]  
 BV BOUND     z[2,2]  
 BV BOUND     z[3,1]  
 BV BOUND     z[3,2]  
 BV BOUND     z[4,1]  
 BV BOUND     z[4,2]  
ENDATA
